; benchmark generated from python API
(set-info :status unknown)
(declare-fun x_days () (_ BitVec 32))
(assert
 (bvsle (_ bv4294930771 32) x_days))
(assert
 (bvsge (_ bv36523 32) x_days))
(assert
 (bvsge x_days (_ bv7214 32)))
(assert
 (bvsle x_days (_ bv7304 32)))
(assert
 (let ((?x3304 (bvadd x_days (_ bv730179 32))))
(let ((?x2961 (bvsmod ?x3304 (_ bv146097 32))))
(let ((?x6867 (bvsdiv ?x2961 (_ bv36524 32))))
(let ((?x650 (ite (bvsle (_ bv4 32) ?x6867) (_ bv3 32) ?x6867)))
(let ((?x4154 (bvsub ?x2961 (bvmul ?x650 (_ bv36524 32)))))
(let ((?x1098 (bvsmod ?x4154 (_ bv1461 32))))
(let ((?x2441 (bvsdiv ?x1098 (_ bv365 32))))
(let ((?x3291 (ite (bvsle (_ bv4 32) ?x2441) (_ bv3 32) ?x2441)))
(let ((?x904 (bvadd (bvadd (bvmul (bvsdiv ?x3304 (_ bv146097 32)) (_ bv400 32)) (bvmul ?x650 (_ bv100 32))) (bvmul (bvsdiv ?x4154 (_ bv1461 32)) (_ bv4 32)))))
(let ((?x5556 (bvadd (bvadd ?x904 ?x3291) (_ bv1 32))))
(let (($x555 (or (and (= (bvsmod ?x5556 (_ bv4 32)) (_ bv0 32)) (and (distinct (bvsmod ?x5556 (_ bv100 32)) (_ bv0 32)) true)) (= (bvsmod ?x5556 (_ bv400 32)) (_ bv0 32)))))
(let ((?x424 (bvsub ?x1098 (bvmul ?x3291 (_ bv365 32)))))
(let ((?x582 (ite $x555 (_ bv31 32) (_ bv31 32))))
(let (($x7226 (bvsge ?x424 ?x582)))
(let ((?x4427 (ite $x7226 (bvadd (bvsub ?x424 ?x582) (_ bv1 32)) (bvadd (bvsub ?x424 (ite $x555 (_ bv0 32) (_ bv0 32))) (_ bv1 32)))))
(let ((?x5591 (ite $x555 (_ bv60 32) (_ bv59 32))))
(let (($x3273 (bvsge ?x424 ?x5591)))
(let ((?x3949 (ite $x555 (_ bv91 32) (_ bv90 32))))
(let (($x1796 (bvsge ?x424 ?x3949)))
(let ((?x1289 (ite $x1796 (bvadd (bvsub ?x424 ?x3949) (_ bv1 32)) (ite $x3273 (bvadd (bvsub ?x424 ?x5591) (_ bv1 32)) ?x4427))))
(let ((?x4678 (ite $x555 (_ bv121 32) (_ bv120 32))))
(let (($x5271 (bvsge ?x424 ?x4678)))
(let ((?x3734 (ite $x555 (_ bv152 32) (_ bv151 32))))
(let (($x5133 (bvsge ?x424 ?x3734)))
(let ((?x6454 (ite $x5133 (bvadd (bvsub ?x424 ?x3734) (_ bv1 32)) (ite $x5271 (bvadd (bvsub ?x424 ?x4678) (_ bv1 32)) ?x1289))))
(let ((?x1370 (ite $x555 (_ bv182 32) (_ bv181 32))))
(let (($x534 (bvsge ?x424 ?x1370)))
(let ((?x1548 (ite $x555 (_ bv213 32) (_ bv212 32))))
(let (($x2916 (bvsge ?x424 ?x1548)))
(let ((?x2160 (ite $x2916 (bvadd (bvsub ?x424 ?x1548) (_ bv1 32)) (ite $x534 (bvadd (bvsub ?x424 ?x1370) (_ bv1 32)) ?x6454))))
(let ((?x4067 (ite $x555 (_ bv244 32) (_ bv243 32))))
(let (($x6947 (bvsge ?x424 ?x4067)))
(let ((?x3155 (ite $x555 (_ bv274 32) (_ bv273 32))))
(let (($x1125 (bvsge ?x424 ?x3155)))
(let ((?x1617 (ite $x1125 (bvadd (bvsub ?x424 ?x3155) (_ bv1 32)) (ite $x6947 (bvadd (bvsub ?x424 ?x4067) (_ bv1 32)) ?x2160))))
(let ((?x859 (ite $x555 (_ bv305 32) (_ bv304 32))))
(let (($x5233 (bvsge ?x424 ?x859)))
(let ((?x5756 (ite $x555 (_ bv335 32) (_ bv334 32))))
(let (($x2319 (bvsge ?x424 ?x5756)))
(let ((?x3930 (ite $x2319 (bvadd (bvsub ?x424 ?x5756) (_ bv1 32)) (ite $x5233 (bvadd (bvsub ?x424 ?x859) (_ bv1 32)) ?x1617))))
(let ((?x1138 (ite $x5133 (_ bv6 32) (ite $x5271 (_ bv5 32) (ite $x1796 (_ bv4 32) (ite $x3273 (_ bv3 32) (ite $x7226 (_ bv2 32) (_ bv1 32))))))))
(let ((?x8016 (ite $x5233 (_ bv11 32) (ite $x1125 (_ bv10 32) (ite $x6947 (_ bv9 32) (ite $x2916 (_ bv8 32) (ite $x534 (_ bv7 32) ?x1138)))))))
(let ((?x3300 (bvadd (ite $x2319 (_ bv12 32) ?x8016) (bvadd (bvmul (_ bv1 32) (_ bv12 32)) (_ bv0 32)))))
(let ((?x4286 (bvsub (ite (bvuge ?x3300 (_ bv2147483648 32)) (bvsub ?x3300 (_ bv0 32)) ?x3300) (_ bv1 32))))
(let ((?x987 (bvsmod ?x4286 (_ bv12 32))))
(let ((?x690 (bvadd ?x987 (_ bv1 32))))
(let ((?x6762 (ite (or (= ?x690 (_ bv4 32)) (= ?x690 (_ bv6 32)) (= ?x690 (_ bv9 32)) (= ?x690 (_ bv11 32))) (_ bv30 32) (_ bv31 32))))
(let ((?x1576 (bvsdiv ?x4286 (_ bv12 32))))
(let ((?x2591 (ite (and (bvuge ?x4286 (_ bv2147483648 32)) (and (distinct (_ bv0 32) ?x987) true)) (bvsub ?x1576 (_ bv1 32)) ?x1576)))
(let ((?x7022 (bvadd ?x5556 (bvadd (_ bv0 32) ?x2591))))
(let (($x716 (or (and (= (bvsmod ?x7022 (_ bv4 32)) (_ bv0 32)) (and (distinct (bvsmod ?x7022 (_ bv100 32)) (_ bv0 32)) true)) (= (bvsmod ?x7022 (_ bv400 32)) (_ bv0 32)))))
(let ((?x5504 (ite (= ?x690 (_ bv2 32)) (ite $x716 (_ bv29 32) (_ bv28 32)) ?x6762)))
(let ((?x1304 (ite (bvsgt (_ bv1 32) ?x3930) (_ bv1 32) (ite (bvsgt ?x3930 ?x5504) ?x5504 ?x3930))))
(let ((?x4368 (ite (bvsgt (_ bv1 32) ?x1304) (_ bv1 32) (ite (bvsgt ?x1304 ?x5504) ?x5504 ?x1304))))
(let ((?x507 (ite (= (_ bv2 32) ?x690) (ite $x716 (_ bv31 32) (_ bv31 32)) (ite (= (_ bv1 32) ?x690) (ite $x716 (_ bv0 32) (_ bv0 32)) (_ bv0 32)))))
(let ((?x3766 (ite (= (_ bv4 32) ?x690) (ite $x716 (_ bv91 32) (_ bv90 32)) (ite (= (_ bv3 32) ?x690) (ite $x716 (_ bv60 32) (_ bv59 32)) ?x507))))
(let ((?x739 (ite (= (_ bv6 32) ?x690) (ite $x716 (_ bv152 32) (_ bv151 32)) (ite (= (_ bv5 32) ?x690) (ite $x716 (_ bv121 32) (_ bv120 32)) ?x3766))))
(let ((?x2053 (ite (= (_ bv8 32) ?x690) (ite $x716 (_ bv213 32) (_ bv212 32)) (ite (= (_ bv7 32) ?x690) (ite $x716 (_ bv182 32) (_ bv181 32)) ?x739))))
(let ((?x5462 (ite (= (_ bv10 32) ?x690) (ite $x716 (_ bv274 32) (_ bv273 32)) (ite (= (_ bv9 32) ?x690) (ite $x716 (_ bv244 32) (_ bv243 32)) ?x2053))))
(let ((?x5451 (ite (= (_ bv12 32) ?x690) (ite $x716 (_ bv335 32) (_ bv334 32)) (ite (= (_ bv11 32) ?x690) (ite $x716 (_ bv305 32) (_ bv304 32)) ?x5462))))
(let ((?x1372 (bvadd (bvmul (_ bv365 32) (bvsub ?x7022 (_ bv1 32))) (bvsdiv (bvsub ?x7022 (_ bv1 32)) (_ bv4 32)))))
(let ((?x3393 (bvadd (bvsub ?x1372 (bvsdiv (bvsub ?x7022 (_ bv1 32)) (_ bv100 32))) (bvsdiv (bvsub ?x7022 (_ bv1 32)) (_ bv400 32)))))
(let ((?x2215 (bvadd (bvadd (bvsub (bvadd (bvadd ?x3393 ?x5451) (bvsub ?x4368 (_ bv1 32))) (_ bv730179 32)) (_ bv0 32)) (_ bv730179 32))))
(let ((?x8273 (bvsmod ?x2215 (_ bv146097 32))))
(let ((?x2495 (bvsdiv ?x8273 (_ bv36524 32))))
(let ((?x1644 (ite (bvsle (_ bv4 32) ?x2495) (_ bv3 32) ?x2495)))
(let ((?x939 (bvsub ?x8273 (bvmul ?x1644 (_ bv36524 32)))))
(let ((?x3772 (bvsmod ?x939 (_ bv1461 32))))
(let ((?x2256 (bvsdiv ?x3772 (_ bv365 32))))
(let ((?x562 (ite (bvsle (_ bv4 32) ?x2256) (_ bv3 32) ?x2256)))
(let ((?x4204 (bvadd (bvadd (bvmul (bvsdiv ?x2215 (_ bv146097 32)) (_ bv400 32)) (bvmul ?x1644 (_ bv100 32))) (bvmul (bvsdiv ?x939 (_ bv1461 32)) (_ bv4 32)))))
(let ((?x6937 (bvadd (bvadd ?x4204 ?x562) (_ bv1 32))))
(let (($x4371 (or (and (= (bvsmod ?x6937 (_ bv4 32)) (_ bv0 32)) (and (distinct (bvsmod ?x6937 (_ bv100 32)) (_ bv0 32)) true)) (= (bvsmod ?x6937 (_ bv400 32)) (_ bv0 32)))))
(let ((?x672 (bvsub ?x3772 (bvmul ?x562 (_ bv365 32)))))
(let ((?x6881 (ite $x4371 (_ bv31 32) (_ bv31 32))))
(let (($x455 (bvsge ?x672 ?x6881)))
(let ((?x694 (ite $x455 (bvadd (bvsub ?x672 ?x6881) (_ bv1 32)) (bvadd (bvsub ?x672 (ite $x4371 (_ bv0 32) (_ bv0 32))) (_ bv1 32)))))
(let ((?x2451 (ite $x4371 (_ bv60 32) (_ bv59 32))))
(let (($x515 (bvsge ?x672 ?x2451)))
(let ((?x3579 (ite $x4371 (_ bv91 32) (_ bv90 32))))
(let (($x1087 (bvsge ?x672 ?x3579)))
(let ((?x5426 (ite $x1087 (bvadd (bvsub ?x672 ?x3579) (_ bv1 32)) (ite $x515 (bvadd (bvsub ?x672 ?x2451) (_ bv1 32)) ?x694))))
(let ((?x8219 (ite $x4371 (_ bv121 32) (_ bv120 32))))
(let (($x3844 (bvsge ?x672 ?x8219)))
(let ((?x1627 (ite $x4371 (_ bv152 32) (_ bv151 32))))
(let (($x3086 (bvsge ?x672 ?x1627)))
(let ((?x1762 (ite $x3086 (bvadd (bvsub ?x672 ?x1627) (_ bv1 32)) (ite $x3844 (bvadd (bvsub ?x672 ?x8219) (_ bv1 32)) ?x5426))))
(let ((?x2185 (ite $x4371 (_ bv182 32) (_ bv181 32))))
(let (($x2652 (bvsge ?x672 ?x2185)))
(let ((?x706 (ite $x4371 (_ bv213 32) (_ bv212 32))))
(let (($x5270 (bvsge ?x672 ?x706)))
(let ((?x2244 (ite $x5270 (bvadd (bvsub ?x672 ?x706) (_ bv1 32)) (ite $x2652 (bvadd (bvsub ?x672 ?x2185) (_ bv1 32)) ?x1762))))
(let ((?x1902 (ite $x4371 (_ bv244 32) (_ bv243 32))))
(let (($x934 (bvsge ?x672 ?x1902)))
(let ((?x3621 (ite $x4371 (_ bv274 32) (_ bv273 32))))
(let (($x2539 (bvsge ?x672 ?x3621)))
(let ((?x836 (ite $x2539 (bvadd (bvsub ?x672 ?x3621) (_ bv1 32)) (ite $x934 (bvadd (bvsub ?x672 ?x1902) (_ bv1 32)) ?x2244))))
(let ((?x4440 (ite $x4371 (_ bv305 32) (_ bv304 32))))
(let (($x5573 (bvsge ?x672 ?x4440)))
(let ((?x6962 (ite $x4371 (_ bv335 32) (_ bv334 32))))
(let (($x3525 (bvsge ?x672 ?x6962)))
(let ((?x1475 (ite $x3525 (bvadd (bvsub ?x672 ?x6962) (_ bv1 32)) (ite $x5573 (bvadd (bvsub ?x672 ?x4440) (_ bv1 32)) ?x836))))
(let (($x1582 (= (_ bv0 32) (_ bv0 32))))
(let (($x1318 (and (= (bvsmod (ite $x1582 ?x7022 ?x6937) (_ bv4 32)) (_ bv0 32)) (and (distinct (bvsmod (ite $x1582 ?x7022 ?x6937) (_ bv100 32)) (_ bv0 32)) true))))
(let (($x808 (or $x1318 (= (bvsmod (ite $x1582 ?x7022 ?x6937) (_ bv400 32)) (_ bv0 32)))))
(let ((?x3632 (ite $x3086 (_ bv6 32) (ite $x3844 (_ bv5 32) (ite $x1087 (_ bv4 32) (ite $x515 (_ bv3 32) (ite $x455 (_ bv2 32) (_ bv1 32))))))))
(let ((?x6929 (ite $x5573 (_ bv11 32) (ite $x2539 (_ bv10 32) (ite $x934 (_ bv9 32) (ite $x5270 (_ bv8 32) (ite $x2652 (_ bv7 32) ?x3632)))))))
(let ((?x923 (ite $x1582 ?x690 (ite $x3525 (_ bv12 32) ?x6929))))
(let ((?x3931 (ite (= (_ bv2 32) ?x923) (ite $x808 (_ bv31 32) (_ bv31 32)) (ite (= (_ bv1 32) ?x923) (ite $x808 (_ bv0 32) (_ bv0 32)) (_ bv0 32)))))
(let ((?x6173 (ite (= (_ bv4 32) ?x923) (ite $x808 (_ bv91 32) (_ bv90 32)) (ite (= (_ bv3 32) ?x923) (ite $x808 (_ bv60 32) (_ bv59 32)) ?x3931))))
(let ((?x7455 (ite (= (_ bv6 32) ?x923) (ite $x808 (_ bv152 32) (_ bv151 32)) (ite (= (_ bv5 32) ?x923) (ite $x808 (_ bv121 32) (_ bv120 32)) ?x6173))))
(let ((?x2144 (ite (= (_ bv8 32) ?x923) (ite $x808 (_ bv213 32) (_ bv212 32)) (ite (= (_ bv7 32) ?x923) (ite $x808 (_ bv182 32) (_ bv181 32)) ?x7455))))
(let ((?x407 (ite (= (_ bv10 32) ?x923) (ite $x808 (_ bv274 32) (_ bv273 32)) (ite (= (_ bv9 32) ?x923) (ite $x808 (_ bv244 32) (_ bv243 32)) ?x2144))))
(let ((?x1833 (ite (= (_ bv12 32) ?x923) (ite $x808 (_ bv335 32) (_ bv334 32)) (ite (= (_ bv11 32) ?x923) (ite $x808 (_ bv305 32) (_ bv304 32)) ?x407))))
(let ((?x4599 (bvadd (bvmul (_ bv365 32) (bvsub (ite $x1582 ?x7022 ?x6937) (_ bv1 32))) (bvsdiv (bvsub (ite $x1582 ?x7022 ?x6937) (_ bv1 32)) (_ bv4 32)))))
(let ((?x837 (bvadd (bvsub ?x4599 (bvsdiv (bvsub (ite $x1582 ?x7022 ?x6937) (_ bv1 32)) (_ bv100 32))) (bvsdiv (bvsub (ite $x1582 ?x7022 ?x6937) (_ bv1 32)) (_ bv400 32)))))
(let ((?x8218 (bvsub (bvadd (bvadd ?x837 ?x1833) (bvsub (ite $x1582 ?x4368 ?x1475) (_ bv1 32))) (_ bv730179 32))))
(not (= ?x8218 (bvadd x_days (_ bv366 32))))))))))))))))))))))))))))))))))))))))))))))))))))))))))))))))))))))))))))))))))))))))))))))))))))))))))))))))))))))))))
(check-sat)
